(set-logic QF_NRA)
(set-info :source |Benchmarks generated from hycomp (https://es-static.fbk.eu/tools/hycomp/). BMC instances of non-linear hybrid automata taken from: Alessandro Cimatti, Sergio Mover, Stefano Tonetta, A quantifier-free SMT encoding of non-linear hybrid automata, FMCAD 2012 and Alessandro Cimatti, Sergio Mover, Stefano Tonetta, Quantier-free encoding of invariants for Hybrid Systems, Formal Methods in System Design. This instance solves a BMC problem of depth 3 and uses the quantifier free encoding with equivalences and lemmas encoding. Contacts: Sergio Mover (mover@fbk.eu), Stefano Tonetta (tonettas@fbk.eu), Alessandro Cimatti (cimatti@fbk.eu).|)
(set-info :smt-lib-version 2.0)
(set-info :category "industrial")
(set-info :status unsat)
;; MathSAT API call trace
;; generated on Mon Mar 19 10:48:32 2012
(declare-fun b.counter.1__AT1 () Bool)
(declare-fun b.event_is_timed__AT2 () Bool)
(declare-fun b.speed_y__AT3 () Real)
(declare-fun b.counter.2__AT1 () Bool)
(declare-fun b.event_is_timed__AT0 () Bool)
(declare-fun b.time__AT3 () Real)
(declare-fun b.counter.3__AT1 () Bool)
(declare-fun b.bool_atom__AT0 () Bool)
(declare-fun b.delta__AT3 () Real)
(declare-fun b.x__AT0 () Real)
(declare-fun b.bool_atom__AT2 () Bool)
(declare-fun b.y__AT2 () Real)
(declare-fun b.EVENT.0__AT3 () Bool)
(declare-fun b.counter.0__AT2 () Bool)
(declare-fun b.time__AT2 () Real)
(declare-fun b.delta__AT1 () Real)
(declare-fun b.speed_y__AT1 () Real)
(declare-fun b.counter.1__AT2 () Bool)
(declare-fun b.delta__AT2 () Real)
(declare-fun b.time__AT1 () Real)
(declare-fun b.EVENT.0__AT1 () Bool)
(declare-fun b.counter.2__AT2 () Bool)
(declare-fun b.x__AT2 () Real)
(declare-fun b.EVENT.0__AT2 () Bool)
(declare-fun b.time__AT0 () Real)
(declare-fun b.EVENT.1__AT1 () Bool)
(declare-fun b.counter.3__AT2 () Bool)
(declare-fun b.EVENT.1__AT2 () Bool)
(declare-fun b.delta__AT0 () Real)
(declare-fun b.EVENT.1__AT0 () Bool)
(declare-fun b.speed_y__AT2 () Real)
(declare-fun b.y__AT0 () Real)
(declare-fun b.counter.0__AT0 () Bool)
(declare-fun b.event_is_timed__AT3 () Bool)
(declare-fun b.EVENT.0__AT0 () Bool)
(declare-fun b.counter.3__AT0 () Bool)
(declare-fun b.counter.1__AT0 () Bool)
(declare-fun b.event_is_timed__AT1 () Bool)
(declare-fun b.bool_atom__AT1 () Bool)
(declare-fun b.y__AT3 () Real)
(declare-fun b.counter.0__AT3 () Bool)
(declare-fun b.counter.1__AT3 () Bool)
(declare-fun b.g__AT0 () Real)
(declare-fun b.x__AT3 () Real)
(declare-fun b.speed_y__AT0 () Real)
(declare-fun b.counter.2__AT3 () Bool)
(declare-fun b.x__AT1 () Real)
(declare-fun b.EVENT.1__AT3 () Bool)
(declare-fun b.counter.3__AT3 () Bool)
(declare-fun b.y__AT1 () Real)
(declare-fun b.counter.2__AT0 () Bool)
(declare-fun b.bool_atom__AT3 () Bool)
(declare-fun b.counter.0__AT1 () Bool)
(assert (let ((.def_65 (* (- 1.0) b.g__AT0)))
(let ((.def_68 (* (/ 1 2) .def_65)))
(let ((.def_80 (* 2.0 .def_68)))
(let ((.def_724 (* .def_80 b.delta__AT3)))
(let ((.def_725 (+ b.speed_y__AT3 .def_724)))
(let ((.def_742 (<= .def_725 0.0 )))
(let ((.def_743 (not .def_742)))
(let ((.def_740 (<= b.speed_y__AT3 0.0 )))
(let ((.def_763 (or .def_740 .def_743)))
(let ((.def_728 (<= 0.0 b.speed_y__AT3)))
(let ((.def_729 (not .def_728)))
(let ((.def_726 (<= 0.0 .def_725)))
(let ((.def_762 (or .def_726 .def_729)))
(let ((.def_764 (and .def_762 .def_763)))
(let ((.def_120 (<= 0.0 b.g__AT0)))
(let ((.def_765 (or .def_120 .def_764)))
(let ((.def_727 (not .def_726)))
(let ((.def_759 (or .def_727 .def_728)))
(let ((.def_741 (not .def_740)))
(let ((.def_758 (or .def_741 .def_742)))
(let ((.def_760 (and .def_758 .def_759)))
(let ((.def_115 (<= b.g__AT0 0.0 )))
(let ((.def_761 (or .def_115 .def_760)))
(let ((.def_766 (and .def_761 .def_765)))
(let ((.def_755 (and .def_740 .def_742)))
(let ((.def_754 (and .def_726 .def_728)))
(let ((.def_756 (or .def_754 .def_755)))
(let ((.def_715 (* b.speed_y__AT3 b.delta__AT3)))
(let ((.def_713 (* b.delta__AT3 b.delta__AT3)))
(let ((.def_714 (* .def_68 .def_713)))
(let ((.def_716 (+ .def_714 .def_715)))
(let ((.def_702 (* (- 1.0) b.x__AT3)))
(let ((.def_703 (* b.x__AT3 .def_702)))
(let ((.def_717 (* (- 1.0) .def_703)))
(let ((.def_720 (+ .def_717 .def_716)))
(let ((.def_721 (+ b.y__AT3 .def_720)))
(let ((.def_734 (<= .def_721 0.0 )))
(let ((.def_748 (not .def_734)))
(let ((.def_732 (<= b.y__AT3 .def_703)))
(let ((.def_749 (or .def_732 .def_748)))
(let ((.def_704 (<= .def_703 b.y__AT3)))
(let ((.def_746 (not .def_704)))
(let ((.def_722 (<= 0.0 .def_721)))
(let ((.def_747 (or .def_722 .def_746)))
(let ((.def_750 (and .def_747 .def_749)))
(let ((.def_744 (or .def_741 .def_743)))
(let ((.def_745 (not .def_744)))
(let ((.def_751 (or .def_745 .def_750)))
(let ((.def_736 (not .def_722)))
(let ((.def_737 (or .def_704 .def_736)))
(let ((.def_733 (not .def_732)))
(let ((.def_735 (or .def_733 .def_734)))
(let ((.def_738 (and .def_735 .def_737)))
(let ((.def_730 (or .def_727 .def_729)))
(let ((.def_731 (not .def_730)))
(let ((.def_739 (or .def_731 .def_738)))
(let ((.def_752 (and .def_739 .def_751)))
(let ((.def_723 (and .def_704 .def_722)))
(let ((.def_753 (and .def_723 .def_752)))
(let ((.def_757 (and .def_753 .def_756)))
(let ((.def_767 (and .def_757 .def_766)))
(let ((.def_57 (<= b.g__AT0 10.0 )))
(let ((.def_56 (<= 8.0 b.g__AT0)))
(let ((.def_58 (and .def_56 .def_57)))
(let ((.def_768 (and .def_58 .def_767)))
(let ((.def_409 (not b.counter.0__AT2)))
(let ((.def_399 (not b.counter.1__AT2)))
(let ((.def_708 (and .def_399 .def_409)))
(let ((.def_404 (not b.counter.2__AT2)))
(let ((.def_709 (and .def_404 .def_708)))
(let ((.def_705 (and .def_58 .def_704)))
(let ((.def_699 (not b.EVENT.0__AT3)))
(let ((.def_697 (not b.EVENT.1__AT3)))
(let ((.def_700 (or .def_697 .def_699)))
(let ((.def_6 (not b.counter.0__AT3)))
(let ((.def_4 (not b.counter.1__AT3)))
(let ((.def_690 (or .def_4 .def_6)))
(let ((.def_694 (or b.counter.3__AT3 .def_690)))
(let ((.def_691 (or b.counter.2__AT3 .def_690)))
(let ((.def_9 (not b.counter.2__AT3)))
(let ((.def_689 (or .def_6 .def_9)))
(let ((.def_692 (and .def_689 .def_691)))
(let ((.def_628 (not b.counter.3__AT3)))
(let ((.def_693 (or .def_628 .def_692)))
(let ((.def_695 (and .def_693 .def_694)))
(let ((.def_701 (and .def_695 .def_700)))
(let ((.def_706 (and .def_701 .def_705)))
(let ((.def_684 (<= 0.0 b.delta__AT2)))
(let ((.def_489 (not b.EVENT.0__AT2)))
(let ((.def_487 (not b.EVENT.1__AT2)))
(let ((.def_560 (and .def_487 .def_489)))
(let ((.def_562 (not .def_560)))
(let ((.def_685 (or .def_562 .def_684)))
(let ((.def_686 (or b.EVENT.1__AT2 .def_685)))
(let ((.def_598 (= b.bool_atom__AT2 b.bool_atom__AT3)))
(let ((.def_594 (= b.counter.0__AT3 b.counter.0__AT2)))
(let ((.def_592 (= b.counter.1__AT3 b.counter.1__AT2)))
(let ((.def_590 (= b.counter.2__AT3 b.counter.2__AT2)))
(let ((.def_589 (= b.counter.3__AT2 b.counter.3__AT3)))
(let ((.def_591 (and .def_589 .def_590)))
(let ((.def_593 (and .def_591 .def_592)))
(let ((.def_595 (and .def_593 .def_594)))
(let ((.def_680 (and .def_595 .def_598)))
(let ((.def_681 (or .def_562 .def_680)))
(let ((.def_682 (or b.EVENT.1__AT2 .def_681)))
(let ((.def_669 (* .def_65 b.delta__AT2)))
(let ((.def_670 (* (- 1.0) b.speed_y__AT3)))
(let ((.def_673 (+ .def_670 .def_669)))
(let ((.def_674 (+ b.speed_y__AT2 .def_673)))
(let ((.def_675 (= .def_674 0.0 )))
(let ((.def_660 (* (- 1.0) b.y__AT3)))
(let ((.def_505 (* b.speed_y__AT2 b.delta__AT2)))
(let ((.def_664 (+ .def_505 .def_660)))
(let ((.def_503 (* b.delta__AT2 b.delta__AT2)))
(let ((.def_504 (* .def_68 .def_503)))
(let ((.def_665 (+ .def_504 .def_664)))
(let ((.def_666 (+ b.y__AT2 .def_665)))
(let ((.def_667 (= .def_666 0.0 )))
(let ((.def_580 (= b.x__AT2 b.x__AT3)))
(let ((.def_668 (and .def_580 .def_667)))
(let ((.def_676 (and .def_668 .def_675)))
(let ((.def_677 (or .def_562 .def_676)))
(let ((.def_583 (= b.y__AT2 b.y__AT3)))
(let ((.def_655 (and .def_580 .def_583)))
(let ((.def_586 (= b.speed_y__AT2 b.speed_y__AT3)))
(let ((.def_656 (and .def_586 .def_655)))
(let ((.def_652 (= b.delta__AT2 0.0 )))
(let ((.def_653 (and .def_560 .def_652)))
(let ((.def_654 (not .def_653)))
(let ((.def_657 (or .def_654 .def_656)))
(let ((.def_658 (or b.EVENT.1__AT2 .def_657)))
(let ((.def_645 (and .def_586 .def_595)))
(let ((.def_646 (or b.bool_atom__AT2 .def_645)))
(let ((.def_620 (or .def_6 b.counter.0__AT2)))
(let ((.def_619 (or b.counter.0__AT3 .def_409)))
(let ((.def_621 (and .def_619 .def_620)))
(let ((.def_622 (and .def_4 .def_621)))
(let ((.def_623 (or b.counter.1__AT2 .def_622)))
(let ((.def_618 (or b.counter.1__AT3 .def_399)))
(let ((.def_624 (and .def_618 .def_623)))
(let ((.def_636 (and .def_9 .def_624)))
(let ((.def_637 (or b.counter.2__AT2 .def_636)))
(let ((.def_631 (and .def_4 .def_409)))
(let ((.def_632 (or b.counter.1__AT2 .def_631)))
(let ((.def_633 (and .def_618 .def_632)))
(let ((.def_634 (and b.counter.2__AT3 .def_633)))
(let ((.def_635 (or .def_404 .def_634)))
(let ((.def_638 (and .def_635 .def_637)))
(let ((.def_639 (and b.counter.3__AT3 .def_638)))
(let ((.def_640 (or b.counter.3__AT2 .def_639)))
(let ((.def_625 (and b.counter.2__AT3 .def_624)))
(let ((.def_626 (or b.counter.2__AT2 .def_625)))
(let ((.def_614 (or b.counter.1__AT3 b.counter.1__AT2)))
(let ((.def_612 (and .def_4 b.counter.0__AT3)))
(let ((.def_613 (or .def_399 .def_612)))
(let ((.def_615 (and .def_613 .def_614)))
(let ((.def_616 (and .def_9 .def_615)))
(let ((.def_617 (or .def_404 .def_616)))
(let ((.def_627 (and .def_617 .def_626)))
(let ((.def_629 (and .def_627 .def_628)))
(let ((.def_418 (not b.counter.3__AT2)))
(let ((.def_630 (or .def_418 .def_629)))
(let ((.def_641 (and .def_630 .def_640)))
(let ((.def_609 (* b.speed_y__AT3 b.speed_y__AT3)))
(let ((.def_396 (* b.speed_y__AT2 b.speed_y__AT2)))
(let ((.def_610 (= .def_396 .def_609)))
(let ((.def_607 (+ b.speed_y__AT2 b.speed_y__AT3)))
(let ((.def_608 (= .def_607 0.0 )))
(let ((.def_611 (and .def_608 .def_610)))
(let ((.def_642 (and .def_611 .def_641)))
(let ((.def_606 (not b.bool_atom__AT2)))
(let ((.def_643 (or .def_606 .def_642)))
(let ((.def_492 (* (- 1.0) b.x__AT2)))
(let ((.def_493 (* b.x__AT2 .def_492)))
(let ((.def_603 (= b.y__AT2 .def_493)))
(let ((.def_518 (<= 0.0 b.speed_y__AT2)))
(let ((.def_519 (not .def_518)))
(let ((.def_604 (and .def_519 .def_603)))
(let ((.def_605 (= b.bool_atom__AT2 .def_604)))
(let ((.def_644 (and .def_605 .def_643)))
(let ((.def_647 (and .def_644 .def_646)))
(let ((.def_648 (and .def_580 .def_647)))
(let ((.def_649 (and .def_583 .def_648)))
(let ((.def_650 (or .def_560 .def_649)))
(let ((.def_651 (or b.EVENT.1__AT2 .def_650)))
(let ((.def_659 (and .def_651 .def_658)))
(let ((.def_678 (and .def_659 .def_677)))
(let ((.def_567 (= b.time__AT2 b.time__AT3)))
(let ((.def_581 (and .def_567 .def_580)))
(let ((.def_584 (and .def_581 .def_583)))
(let ((.def_587 (and .def_584 .def_586)))
(let ((.def_596 (and .def_587 .def_595)))
(let ((.def_599 (and .def_596 .def_598)))
(let ((.def_600 (or .def_487 .def_599)))
(let ((.def_570 (* (- 1.0) b.time__AT3)))
(let ((.def_573 (+ b.delta__AT2 .def_570)))
(let ((.def_574 (+ b.time__AT2 .def_573)))
(let ((.def_575 (= .def_574 0.0 )))
(let ((.def_576 (or .def_562 .def_575)))
(let ((.def_577 (or b.EVENT.1__AT2 .def_576)))
(let ((.def_568 (or .def_560 .def_567)))
(let ((.def_569 (or b.EVENT.1__AT2 .def_568)))
(let ((.def_578 (and .def_569 .def_577)))
(let ((.def_601 (and .def_578 .def_600)))
(let ((.def_564 (= .def_562 b.event_is_timed__AT3)))
(let ((.def_561 (= b.event_is_timed__AT2 .def_560)))
(let ((.def_565 (and .def_561 .def_564)))
(let ((.def_602 (and .def_565 .def_601)))
(let ((.def_679 (and .def_602 .def_678)))
(let ((.def_683 (and .def_679 .def_682)))
(let ((.def_687 (and .def_683 .def_686)))
(let ((.def_688 (and .def_487 .def_687)))
(let ((.def_707 (and .def_688 .def_706)))
(let ((.def_710 (and .def_707 .def_709)))
(let ((.def_514 (* .def_80 b.delta__AT2)))
(let ((.def_515 (+ b.speed_y__AT2 .def_514)))
(let ((.def_532 (<= .def_515 0.0 )))
(let ((.def_533 (not .def_532)))
(let ((.def_530 (<= b.speed_y__AT2 0.0 )))
(let ((.def_553 (or .def_530 .def_533)))
(let ((.def_516 (<= 0.0 .def_515)))
(let ((.def_552 (or .def_516 .def_519)))
(let ((.def_554 (and .def_552 .def_553)))
(let ((.def_555 (or .def_120 .def_554)))
(let ((.def_517 (not .def_516)))
(let ((.def_549 (or .def_517 .def_518)))
(let ((.def_531 (not .def_530)))
(let ((.def_548 (or .def_531 .def_532)))
(let ((.def_550 (and .def_548 .def_549)))
(let ((.def_551 (or .def_115 .def_550)))
(let ((.def_556 (and .def_551 .def_555)))
(let ((.def_545 (and .def_530 .def_532)))
(let ((.def_544 (and .def_516 .def_518)))
(let ((.def_546 (or .def_544 .def_545)))
(let ((.def_506 (+ .def_504 .def_505)))
(let ((.def_507 (* (- 1.0) .def_493)))
(let ((.def_510 (+ .def_507 .def_506)))
(let ((.def_511 (+ b.y__AT2 .def_510)))
(let ((.def_524 (<= .def_511 0.0 )))
(let ((.def_538 (not .def_524)))
(let ((.def_522 (<= b.y__AT2 .def_493)))
(let ((.def_539 (or .def_522 .def_538)))
(let ((.def_494 (<= .def_493 b.y__AT2)))
(let ((.def_536 (not .def_494)))
(let ((.def_512 (<= 0.0 .def_511)))
(let ((.def_537 (or .def_512 .def_536)))
(let ((.def_540 (and .def_537 .def_539)))
(let ((.def_534 (or .def_531 .def_533)))
(let ((.def_535 (not .def_534)))
(let ((.def_541 (or .def_535 .def_540)))
(let ((.def_526 (not .def_512)))
(let ((.def_527 (or .def_494 .def_526)))
(let ((.def_523 (not .def_522)))
(let ((.def_525 (or .def_523 .def_524)))
(let ((.def_528 (and .def_525 .def_527)))
(let ((.def_520 (or .def_517 .def_519)))
(let ((.def_521 (not .def_520)))
(let ((.def_529 (or .def_521 .def_528)))
(let ((.def_542 (and .def_529 .def_541)))
(let ((.def_513 (and .def_494 .def_512)))
(let ((.def_543 (and .def_513 .def_542)))
(let ((.def_547 (and .def_543 .def_546)))
(let ((.def_557 (and .def_547 .def_556)))
(let ((.def_558 (and .def_58 .def_557)))
(let ((.def_196 (not b.counter.0__AT1)))
(let ((.def_186 (not b.counter.1__AT1)))
(let ((.def_498 (and .def_186 .def_196)))
(let ((.def_191 (not b.counter.2__AT1)))
(let ((.def_499 (and .def_191 .def_498)))
(let ((.def_495 (and .def_58 .def_494)))
(let ((.def_490 (or .def_487 .def_489)))
(let ((.def_480 (or .def_399 .def_409)))
(let ((.def_484 (or b.counter.3__AT2 .def_480)))
(let ((.def_481 (or b.counter.2__AT2 .def_480)))
(let ((.def_479 (or .def_404 .def_409)))
(let ((.def_482 (and .def_479 .def_481)))
(let ((.def_483 (or .def_418 .def_482)))
(let ((.def_485 (and .def_483 .def_484)))
(let ((.def_491 (and .def_485 .def_490)))
(let ((.def_496 (and .def_491 .def_495)))
(let ((.def_474 (<= 0.0 b.delta__AT1)))
(let ((.def_275 (not b.EVENT.0__AT1)))
(let ((.def_273 (not b.EVENT.1__AT1)))
(let ((.def_344 (and .def_273 .def_275)))
(let ((.def_346 (not .def_344)))
(let ((.def_475 (or .def_346 .def_474)))
(let ((.def_476 (or b.EVENT.1__AT1 .def_475)))
(let ((.def_385 (= b.bool_atom__AT1 b.bool_atom__AT2)))
(let ((.def_381 (= b.counter.0__AT1 b.counter.0__AT2)))
(let ((.def_378 (= b.counter.1__AT1 b.counter.1__AT2)))
(let ((.def_375 (= b.counter.2__AT1 b.counter.2__AT2)))
(let ((.def_373 (= b.counter.3__AT1 b.counter.3__AT2)))
(let ((.def_376 (and .def_373 .def_375)))
(let ((.def_379 (and .def_376 .def_378)))
(let ((.def_382 (and .def_379 .def_381)))
(let ((.def_470 (and .def_382 .def_385)))
(let ((.def_471 (or .def_346 .def_470)))
(let ((.def_472 (or b.EVENT.1__AT1 .def_471)))
(let ((.def_459 (* .def_65 b.delta__AT1)))
(let ((.def_460 (* (- 1.0) b.speed_y__AT2)))
(let ((.def_463 (+ .def_460 .def_459)))
(let ((.def_464 (+ b.speed_y__AT1 .def_463)))
(let ((.def_465 (= .def_464 0.0 )))
(let ((.def_450 (* (- 1.0) b.y__AT2)))
(let ((.def_289 (* b.speed_y__AT1 b.delta__AT1)))
(let ((.def_454 (+ .def_289 .def_450)))
(let ((.def_287 (* b.delta__AT1 b.delta__AT1)))
(let ((.def_288 (* .def_68 .def_287)))
(let ((.def_455 (+ .def_288 .def_454)))
(let ((.def_456 (+ b.y__AT1 .def_455)))
(let ((.def_457 (= .def_456 0.0 )))
(let ((.def_364 (= b.x__AT1 b.x__AT2)))
(let ((.def_458 (and .def_364 .def_457)))
(let ((.def_466 (and .def_458 .def_465)))
(let ((.def_467 (or .def_346 .def_466)))
(let ((.def_367 (= b.y__AT1 b.y__AT2)))
(let ((.def_445 (and .def_364 .def_367)))
(let ((.def_370 (= b.speed_y__AT1 b.speed_y__AT2)))
(let ((.def_446 (and .def_370 .def_445)))
(let ((.def_442 (= b.delta__AT1 0.0 )))
(let ((.def_443 (and .def_344 .def_442)))
(let ((.def_444 (not .def_443)))
(let ((.def_447 (or .def_444 .def_446)))
(let ((.def_448 (or b.EVENT.1__AT1 .def_447)))
(let ((.def_435 (and .def_370 .def_382)))
(let ((.def_436 (or b.bool_atom__AT1 .def_435)))
(let ((.def_410 (or b.counter.0__AT1 .def_409)))
(let ((.def_408 (or .def_196 b.counter.0__AT2)))
(let ((.def_411 (and .def_408 .def_410)))
(let ((.def_412 (and .def_399 .def_411)))
(let ((.def_413 (or b.counter.1__AT1 .def_412)))
(let ((.def_407 (or .def_186 b.counter.1__AT2)))
(let ((.def_414 (and .def_407 .def_413)))
(let ((.def_426 (and .def_404 .def_414)))
(let ((.def_427 (or b.counter.2__AT1 .def_426)))
(let ((.def_421 (and .def_196 .def_399)))
(let ((.def_422 (or b.counter.1__AT1 .def_421)))
(let ((.def_423 (and .def_407 .def_422)))
(let ((.def_424 (and b.counter.2__AT2 .def_423)))
(let ((.def_425 (or .def_191 .def_424)))
(let ((.def_428 (and .def_425 .def_427)))
(let ((.def_429 (and b.counter.3__AT2 .def_428)))
(let ((.def_430 (or b.counter.3__AT1 .def_429)))
(let ((.def_415 (and b.counter.2__AT2 .def_414)))
(let ((.def_416 (or b.counter.2__AT1 .def_415)))
(let ((.def_402 (or b.counter.1__AT1 b.counter.1__AT2)))
(let ((.def_400 (and b.counter.0__AT2 .def_399)))
(let ((.def_401 (or .def_186 .def_400)))
(let ((.def_403 (and .def_401 .def_402)))
(let ((.def_405 (and .def_403 .def_404)))
(let ((.def_406 (or .def_191 .def_405)))
(let ((.def_417 (and .def_406 .def_416)))
(let ((.def_419 (and .def_417 .def_418)))
(let ((.def_205 (not b.counter.3__AT1)))
(let ((.def_420 (or .def_205 .def_419)))
(let ((.def_431 (and .def_420 .def_430)))
(let ((.def_182 (* b.speed_y__AT1 b.speed_y__AT1)))
(let ((.def_397 (= .def_182 .def_396)))
(let ((.def_394 (+ b.speed_y__AT1 b.speed_y__AT2)))
(let ((.def_395 (= .def_394 0.0 )))
(let ((.def_398 (and .def_395 .def_397)))
(let ((.def_432 (and .def_398 .def_431)))
(let ((.def_393 (not b.bool_atom__AT1)))
(let ((.def_433 (or .def_393 .def_432)))
(let ((.def_278 (* (- 1.0) b.x__AT1)))
(let ((.def_279 (* b.x__AT1 .def_278)))
(let ((.def_390 (= b.y__AT1 .def_279)))
(let ((.def_302 (<= 0.0 b.speed_y__AT1)))
(let ((.def_303 (not .def_302)))
(let ((.def_391 (and .def_303 .def_390)))
(let ((.def_392 (= b.bool_atom__AT1 .def_391)))
(let ((.def_434 (and .def_392 .def_433)))
(let ((.def_437 (and .def_434 .def_436)))
(let ((.def_438 (and .def_364 .def_437)))
(let ((.def_439 (and .def_367 .def_438)))
(let ((.def_440 (or .def_344 .def_439)))
(let ((.def_441 (or b.EVENT.1__AT1 .def_440)))
(let ((.def_449 (and .def_441 .def_448)))
(let ((.def_468 (and .def_449 .def_467)))
(let ((.def_351 (= b.time__AT1 b.time__AT2)))
(let ((.def_365 (and .def_351 .def_364)))
(let ((.def_368 (and .def_365 .def_367)))
(let ((.def_371 (and .def_368 .def_370)))
(let ((.def_383 (and .def_371 .def_382)))
(let ((.def_386 (and .def_383 .def_385)))
(let ((.def_387 (or .def_273 .def_386)))
(let ((.def_354 (* (- 1.0) b.time__AT2)))
(let ((.def_357 (+ b.delta__AT1 .def_354)))
(let ((.def_358 (+ b.time__AT1 .def_357)))
(let ((.def_359 (= .def_358 0.0 )))
(let ((.def_360 (or .def_346 .def_359)))
(let ((.def_361 (or b.EVENT.1__AT1 .def_360)))
(let ((.def_352 (or .def_344 .def_351)))
(let ((.def_353 (or b.EVENT.1__AT1 .def_352)))
(let ((.def_362 (and .def_353 .def_361)))
(let ((.def_388 (and .def_362 .def_387)))
(let ((.def_348 (= .def_346 b.event_is_timed__AT2)))
(let ((.def_345 (= b.event_is_timed__AT1 .def_344)))
(let ((.def_349 (and .def_345 .def_348)))
(let ((.def_389 (and .def_349 .def_388)))
(let ((.def_469 (and .def_389 .def_468)))
(let ((.def_473 (and .def_469 .def_472)))
(let ((.def_477 (and .def_473 .def_476)))
(let ((.def_478 (and .def_273 .def_477)))
(let ((.def_497 (and .def_478 .def_496)))
(let ((.def_500 (and .def_497 .def_499)))
(let ((.def_298 (* .def_80 b.delta__AT1)))
(let ((.def_299 (+ b.speed_y__AT1 .def_298)))
(let ((.def_316 (<= .def_299 0.0 )))
(let ((.def_317 (not .def_316)))
(let ((.def_314 (<= b.speed_y__AT1 0.0 )))
(let ((.def_337 (or .def_314 .def_317)))
(let ((.def_300 (<= 0.0 .def_299)))
(let ((.def_336 (or .def_300 .def_303)))
(let ((.def_338 (and .def_336 .def_337)))
(let ((.def_339 (or .def_120 .def_338)))
(let ((.def_301 (not .def_300)))
(let ((.def_333 (or .def_301 .def_302)))
(let ((.def_315 (not .def_314)))
(let ((.def_332 (or .def_315 .def_316)))
(let ((.def_334 (and .def_332 .def_333)))
(let ((.def_335 (or .def_115 .def_334)))
(let ((.def_340 (and .def_335 .def_339)))
(let ((.def_329 (and .def_314 .def_316)))
(let ((.def_328 (and .def_300 .def_302)))
(let ((.def_330 (or .def_328 .def_329)))
(let ((.def_290 (+ .def_288 .def_289)))
(let ((.def_291 (* (- 1.0) .def_279)))
(let ((.def_294 (+ .def_291 .def_290)))
(let ((.def_295 (+ b.y__AT1 .def_294)))
(let ((.def_308 (<= .def_295 0.0 )))
(let ((.def_322 (not .def_308)))
(let ((.def_306 (<= b.y__AT1 .def_279)))
(let ((.def_323 (or .def_306 .def_322)))
(let ((.def_280 (<= .def_279 b.y__AT1)))
(let ((.def_320 (not .def_280)))
(let ((.def_296 (<= 0.0 .def_295)))
(let ((.def_321 (or .def_296 .def_320)))
(let ((.def_324 (and .def_321 .def_323)))
(let ((.def_318 (or .def_315 .def_317)))
(let ((.def_319 (not .def_318)))
(let ((.def_325 (or .def_319 .def_324)))
(let ((.def_310 (not .def_296)))
(let ((.def_311 (or .def_280 .def_310)))
(let ((.def_307 (not .def_306)))
(let ((.def_309 (or .def_307 .def_308)))
(let ((.def_312 (and .def_309 .def_311)))
(let ((.def_304 (or .def_301 .def_303)))
(let ((.def_305 (not .def_304)))
(let ((.def_313 (or .def_305 .def_312)))
(let ((.def_326 (and .def_313 .def_325)))
(let ((.def_297 (and .def_280 .def_296)))
(let ((.def_327 (and .def_297 .def_326)))
(let ((.def_331 (and .def_327 .def_330)))
(let ((.def_341 (and .def_331 .def_340)))
(let ((.def_342 (and .def_58 .def_341)))
(let ((.def_281 (and .def_58 .def_280)))
(let ((.def_276 (or .def_273 .def_275)))
(let ((.def_266 (or .def_186 .def_196)))
(let ((.def_270 (or b.counter.3__AT1 .def_266)))
(let ((.def_267 (or b.counter.2__AT1 .def_266)))
(let ((.def_265 (or .def_191 .def_196)))
(let ((.def_268 (and .def_265 .def_267)))
(let ((.def_269 (or .def_205 .def_268)))
(let ((.def_271 (and .def_269 .def_270)))
(let ((.def_277 (and .def_271 .def_276)))
(let ((.def_282 (and .def_277 .def_281)))
(let ((.def_260 (<= 0.0 b.delta__AT0)))
(let ((.def_46 (not b.EVENT.0__AT0)))
(let ((.def_44 (not b.EVENT.1__AT0)))
(let ((.def_129 (and .def_44 .def_46)))
(let ((.def_131 (not .def_129)))
(let ((.def_261 (or .def_131 .def_260)))
(let ((.def_262 (or b.EVENT.1__AT0 .def_261)))
(let ((.def_171 (= b.bool_atom__AT0 b.bool_atom__AT1)))
(let ((.def_166 (= b.counter.0__AT0 b.counter.0__AT1)))
(let ((.def_163 (= b.counter.1__AT0 b.counter.1__AT1)))
(let ((.def_160 (= b.counter.2__AT0 b.counter.2__AT1)))
(let ((.def_158 (= b.counter.3__AT0 b.counter.3__AT1)))
(let ((.def_161 (and .def_158 .def_160)))
(let ((.def_164 (and .def_161 .def_163)))
(let ((.def_167 (and .def_164 .def_166)))
(let ((.def_256 (and .def_167 .def_171)))
(let ((.def_257 (or .def_131 .def_256)))
(let ((.def_258 (or b.EVENT.1__AT0 .def_257)))
(let ((.def_245 (* b.delta__AT0 .def_65)))
(let ((.def_246 (* (- 1.0) b.speed_y__AT1)))
(let ((.def_249 (+ .def_246 .def_245)))
(let ((.def_250 (+ b.speed_y__AT0 .def_249)))
(let ((.def_251 (= .def_250 0.0 )))
(let ((.def_237 (* (- 1.0) b.y__AT1)))
(let ((.def_71 (* b.delta__AT0 b.speed_y__AT0)))
(let ((.def_240 (+ .def_71 .def_237)))
(let ((.def_64 (* b.delta__AT0 b.delta__AT0)))
(let ((.def_69 (* .def_64 .def_68)))
(let ((.def_241 (+ .def_69 .def_240)))
(let ((.def_242 (+ b.y__AT0 .def_241)))
(let ((.def_243 (= .def_242 0.0 )))
(let ((.def_149 (= b.x__AT0 b.x__AT1)))
(let ((.def_244 (and .def_149 .def_243)))
(let ((.def_252 (and .def_244 .def_251)))
(let ((.def_253 (or .def_131 .def_252)))
(let ((.def_152 (= b.y__AT0 b.y__AT1)))
(let ((.def_232 (and .def_149 .def_152)))
(let ((.def_155 (= b.speed_y__AT0 b.speed_y__AT1)))
(let ((.def_233 (and .def_155 .def_232)))
(let ((.def_229 (= b.delta__AT0 0.0 )))
(let ((.def_230 (and .def_129 .def_229)))
(let ((.def_231 (not .def_230)))
(let ((.def_234 (or .def_231 .def_233)))
(let ((.def_235 (or b.EVENT.1__AT0 .def_234)))
(let ((.def_222 (and .def_155 .def_167)))
(let ((.def_223 (or b.bool_atom__AT0 .def_222)))
(let ((.def_197 (or b.counter.0__AT0 .def_196)))
(let ((.def_27 (not b.counter.0__AT0)))
(let ((.def_195 (or .def_27 b.counter.0__AT1)))
(let ((.def_198 (and .def_195 .def_197)))
(let ((.def_199 (and .def_186 .def_198)))
(let ((.def_200 (or b.counter.1__AT0 .def_199)))
(let ((.def_25 (not b.counter.1__AT0)))
(let ((.def_194 (or .def_25 b.counter.1__AT1)))
(let ((.def_201 (and .def_194 .def_200)))
(let ((.def_213 (and .def_191 .def_201)))
(let ((.def_214 (or b.counter.2__AT0 .def_213)))
(let ((.def_208 (and .def_27 .def_186)))
(let ((.def_209 (or b.counter.1__AT0 .def_208)))
(let ((.def_210 (and .def_194 .def_209)))
(let ((.def_211 (and b.counter.2__AT1 .def_210)))
(let ((.def_30 (not b.counter.2__AT0)))
(let ((.def_212 (or .def_30 .def_211)))
(let ((.def_215 (and .def_212 .def_214)))
(let ((.def_216 (and b.counter.3__AT1 .def_215)))
(let ((.def_217 (or b.counter.3__AT0 .def_216)))
(let ((.def_202 (and b.counter.2__AT1 .def_201)))
(let ((.def_203 (or b.counter.2__AT0 .def_202)))
(let ((.def_189 (or b.counter.1__AT0 b.counter.1__AT1)))
(let ((.def_187 (and b.counter.0__AT1 .def_186)))
(let ((.def_188 (or .def_25 .def_187)))
(let ((.def_190 (and .def_188 .def_189)))
(let ((.def_192 (and .def_190 .def_191)))
(let ((.def_193 (or .def_30 .def_192)))
(let ((.def_204 (and .def_193 .def_203)))
(let ((.def_206 (and .def_204 .def_205)))
(let ((.def_33 (not b.counter.3__AT0)))
(let ((.def_207 (or .def_33 .def_206)))
(let ((.def_218 (and .def_207 .def_217)))
(let ((.def_183 (* b.speed_y__AT0 b.speed_y__AT0)))
(let ((.def_184 (= .def_182 .def_183)))
(let ((.def_180 (+ b.speed_y__AT0 b.speed_y__AT1)))
(let ((.def_181 (= .def_180 0.0 )))
(let ((.def_185 (and .def_181 .def_184)))
(let ((.def_219 (and .def_185 .def_218)))
(let ((.def_179 (not b.bool_atom__AT0)))
(let ((.def_220 (or .def_179 .def_219)))
(let ((.def_51 (* (- 1.0) b.x__AT0)))
(let ((.def_52 (* b.x__AT0 .def_51)))
(let ((.def_176 (= b.y__AT0 .def_52)))
(let ((.def_85 (<= 0.0 b.speed_y__AT0)))
(let ((.def_86 (not .def_85)))
(let ((.def_177 (and .def_86 .def_176)))
(let ((.def_178 (= b.bool_atom__AT0 .def_177)))
(let ((.def_221 (and .def_178 .def_220)))
(let ((.def_224 (and .def_221 .def_223)))
(let ((.def_225 (and .def_149 .def_224)))
(let ((.def_226 (and .def_152 .def_225)))
(let ((.def_227 (or .def_129 .def_226)))
(let ((.def_228 (or b.EVENT.1__AT0 .def_227)))
(let ((.def_236 (and .def_228 .def_235)))
(let ((.def_254 (and .def_236 .def_253)))
(let ((.def_136 (= b.time__AT0 b.time__AT1)))
(let ((.def_150 (and .def_136 .def_149)))
(let ((.def_153 (and .def_150 .def_152)))
(let ((.def_156 (and .def_153 .def_155)))
(let ((.def_168 (and .def_156 .def_167)))
(let ((.def_172 (and .def_168 .def_171)))
(let ((.def_173 (or .def_44 .def_172)))
(let ((.def_139 (* (- 1.0) b.time__AT1)))
(let ((.def_142 (+ b.delta__AT0 .def_139)))
(let ((.def_143 (+ b.time__AT0 .def_142)))
(let ((.def_144 (= .def_143 0.0 )))
(let ((.def_145 (or .def_131 .def_144)))
(let ((.def_146 (or b.EVENT.1__AT0 .def_145)))
(let ((.def_137 (or .def_129 .def_136)))
(let ((.def_138 (or b.EVENT.1__AT0 .def_137)))
(let ((.def_147 (and .def_138 .def_146)))
(let ((.def_174 (and .def_147 .def_173)))
(let ((.def_133 (= .def_131 b.event_is_timed__AT1)))
(let ((.def_130 (= b.event_is_timed__AT0 .def_129)))
(let ((.def_134 (and .def_130 .def_133)))
(let ((.def_175 (and .def_134 .def_174)))
(let ((.def_255 (and .def_175 .def_254)))
(let ((.def_259 (and .def_255 .def_258)))
(let ((.def_263 (and .def_259 .def_262)))
(let ((.def_264 (and .def_44 .def_263)))
(let ((.def_283 (and .def_264 .def_282)))
(let ((.def_28 (and .def_25 .def_27)))
(let ((.def_31 (and .def_28 .def_30)))
(let ((.def_284 (and .def_31 .def_283)))
(let ((.def_81 (* b.delta__AT0 .def_80)))
(let ((.def_82 (+ b.speed_y__AT0 .def_81)))
(let ((.def_99 (<= .def_82 0.0 )))
(let ((.def_100 (not .def_99)))
(let ((.def_97 (<= b.speed_y__AT0 0.0 )))
(let ((.def_122 (or .def_97 .def_100)))
(let ((.def_83 (<= 0.0 .def_82)))
(let ((.def_121 (or .def_83 .def_86)))
(let ((.def_123 (and .def_121 .def_122)))
(let ((.def_124 (or .def_120 .def_123)))
(let ((.def_84 (not .def_83)))
(let ((.def_117 (or .def_84 .def_85)))
(let ((.def_98 (not .def_97)))
(let ((.def_116 (or .def_98 .def_99)))
(let ((.def_118 (and .def_116 .def_117)))
(let ((.def_119 (or .def_115 .def_118)))
(let ((.def_125 (and .def_119 .def_124)))
(let ((.def_112 (and .def_97 .def_99)))
(let ((.def_111 (and .def_83 .def_85)))
(let ((.def_113 (or .def_111 .def_112)))
(let ((.def_72 (+ .def_69 .def_71)))
(let ((.def_73 (* (- 1.0) .def_52)))
(let ((.def_76 (+ .def_73 .def_72)))
(let ((.def_77 (+ b.y__AT0 .def_76)))
(let ((.def_91 (<= .def_77 0.0 )))
(let ((.def_105 (not .def_91)))
(let ((.def_89 (<= b.y__AT0 .def_52)))
(let ((.def_106 (or .def_89 .def_105)))
(let ((.def_53 (<= .def_52 b.y__AT0)))
(let ((.def_103 (not .def_53)))
(let ((.def_78 (<= 0.0 .def_77)))
(let ((.def_104 (or .def_78 .def_103)))
(let ((.def_107 (and .def_104 .def_106)))
(let ((.def_101 (or .def_98 .def_100)))
(let ((.def_102 (not .def_101)))
(let ((.def_108 (or .def_102 .def_107)))
(let ((.def_93 (not .def_78)))
(let ((.def_94 (or .def_53 .def_93)))
(let ((.def_90 (not .def_89)))
(let ((.def_92 (or .def_90 .def_91)))
(let ((.def_95 (and .def_92 .def_94)))
(let ((.def_87 (or .def_84 .def_86)))
(let ((.def_88 (not .def_87)))
(let ((.def_96 (or .def_88 .def_95)))
(let ((.def_109 (and .def_96 .def_108)))
(let ((.def_79 (and .def_53 .def_78)))
(let ((.def_110 (and .def_79 .def_109)))
(let ((.def_114 (and .def_110 .def_113)))
(let ((.def_126 (and .def_114 .def_125)))
(let ((.def_127 (and .def_58 .def_126)))
(let ((.def_59 (and .def_53 .def_58)))
(let ((.def_47 (or .def_44 .def_46)))
(let ((.def_37 (or .def_25 .def_27)))
(let ((.def_41 (or b.counter.3__AT0 .def_37)))
(let ((.def_38 (or b.counter.2__AT0 .def_37)))
(let ((.def_36 (or .def_27 .def_30)))
(let ((.def_39 (and .def_36 .def_38)))
(let ((.def_40 (or .def_33 .def_39)))
(let ((.def_42 (and .def_40 .def_41)))
(let ((.def_48 (and .def_42 .def_47)))
(let ((.def_60 (and .def_48 .def_59)))
(let ((.def_34 (and .def_31 .def_33)))
(let ((.def_22 (= b.y__AT0 10.0 )))
(let ((.def_18 (= b.x__AT0 0.0 )))
(let ((.def_14 (= b.time__AT0 0.0 )))
(let ((.def_16 (and .def_14 b.event_is_timed__AT0)))
(let ((.def_19 (and .def_16 .def_18)))
(let ((.def_23 (and .def_19 .def_22)))
(let ((.def_35 (and .def_23 .def_34)))
(let ((.def_61 (and .def_35 .def_60)))
(let ((.def_7 (and .def_4 .def_6)))
(let ((.def_10 (and .def_7 .def_9)))
(let ((.def_11 (not .def_10)))
(let ((.def_62 (and .def_11 .def_61)))
(let ((.def_128 (and .def_62 .def_127)))
(let ((.def_285 (and .def_128 .def_284)))
(let ((.def_343 (and .def_285 .def_342)))
(let ((.def_501 (and .def_343 .def_500)))
(let ((.def_559 (and .def_501 .def_558)))
(let ((.def_711 (and .def_559 .def_710)))
(let ((.def_769 (and .def_711 .def_768)))
.def_769))))))))))))))))))))))))))))))))))))))))))))))))))))))))))))))))))))))))))))))))))))))))))))))))))))))))))))))))))))))))))))))))))))))))))))))))))))))))))))))))))))))))))))))))))))))))))))))))))))))))))))))))))))))))))))))))))))))))))))))))))))))))))))))))))))))))))))))))))))))))))))))))))))))))))))))))))))))))))))))))))))))))))))))))))))))))))))))))))))))))))))))))))))))))))))))))))))))))))))))))))))))))))))))))))))))))))))))))))))))))))))))))))))))))))))))))))))))))))))))))))))))))))))))))))))))))))))))))))))))))))))))))))))))))))))))))))))))))))))))))))))))))))))))))))))))))))))))))))))))))))))))))))))))))))))))))))))))))))))))))))))))))))))))))))))))))))))))))))))))))
(check-sat)
(exit)
